1647686.0
1073
0 1 2 5 6 8 9 11 15 20 23 25 30 31 33 34 36 39 40 41 43 44 45 48 49 51 54 55 56 57 58 61 62 64 65 66 68 69 76 77 78 89 90 92 95 98 99 105 106 114 116 117 118 119 120 122 123 124 125 126 129 130 132 133 134 137 140 142 144 148 149 151 152 155 158 161 163 164 168 169 171 175 179 182 187 189 190 192 193 194 196 198 